(set-info :smt-lib-version 2.6)
(set-logic QF_LRA)
(set-info :source |
The Formal Verification of a Reintegration Protocol. Author: Lee Pike. Website: http://www.cs.indiana.edu/~lepike/pub_pages/emsoft.html.

This benchmark was automatically translated into SMT-LIB format from
CVC format using CVC Lite
|)
(set-info :category "industrial")
(set-info :status unsat)
(declare-fun x_0 () Real)
(declare-fun x_1 () Real)
(declare-fun x_2 () Real)
(declare-fun x_3 () Real)
(declare-fun x_4 () Real)
(declare-fun x_5 () Real)
(declare-fun x_6 () Real)
(declare-fun x_7 () Real)
(declare-fun x_8 () Real)
(declare-fun x_9 () Real)
(declare-fun x_10 () Real)
(declare-fun x_11 () Real)
(declare-fun x_12 () Bool)
(declare-fun x_13 () Real)
(declare-fun x_14 () Real)
(declare-fun x_15 () Bool)
(declare-fun x_16 () Real)
(declare-fun x_17 () Real)
(declare-fun x_18 () Real)
(declare-fun x_19 () Real)
(declare-fun x_20 () Bool)
(declare-fun x_21 () Real)
(declare-fun x_22 () Real)
(declare-fun x_23 () Bool)
(declare-fun x_24 () Real)
(declare-fun x_25 () Real)
(declare-fun x_26 () Real)
(declare-fun x_27 () Real)
(declare-fun x_28 () Bool)
(declare-fun x_29 () Real)
(declare-fun x_30 () Real)
(declare-fun x_31 () Bool)
(declare-fun x_32 () Real)
(declare-fun x_33 () Real)
(declare-fun x_34 () Real)
(declare-fun x_35 () Real)
(declare-fun x_36 () Real)
(declare-fun x_37 () Real)
(declare-fun x_38 () Bool)
(declare-fun x_39 () Real)
(declare-fun x_40 () Real)
(declare-fun x_41 () Bool)
(declare-fun x_42 () Real)
(declare-fun x_43 () Bool)
(declare-fun x_44 () Bool)
(declare-fun x_45 () Bool)
(declare-fun x_46 () Bool)
(declare-fun x_47 () Bool)
(declare-fun x_48 () Bool)
(declare-fun x_49 () Bool)
(declare-fun x_50 () Bool)
(declare-fun x_51 () Bool)
(declare-fun x_52 () Bool)
(declare-fun x_53 () Bool)
(declare-fun x_54 () Bool)
(declare-fun x_55 () Real)
(declare-fun x_56 () Real)
(declare-fun x_57 () Real)
(declare-fun x_58 () Real)
(declare-fun x_59 () Real)
(declare-fun x_60 () Real)
(declare-fun x_61 () Real)
(declare-fun x_62 () Bool)
(declare-fun x_63 () Bool)
(declare-fun x_64 () Bool)
(declare-fun x_65 () Bool)
(declare-fun x_66 () Bool)
(declare-fun x_67 () Bool)
(declare-fun x_68 () Bool)
(declare-fun x_69 () Bool)
(declare-fun x_70 () Real)
(declare-fun x_71 () Real)
(declare-fun x_72 () Real)
(declare-fun x_73 () Real)
(declare-fun x_74 () Real)
(declare-fun x_75 () Real)
(declare-fun x_76 () Bool)
(declare-fun x_77 () Bool)
(declare-fun x_78 () Bool)
(declare-fun x_79 () Bool)
(declare-fun x_80 () Bool)
(declare-fun x_81 () Bool)
(declare-fun x_82 () Bool)
(declare-fun x_83 () Real)
(declare-fun x_84 () Real)
(declare-fun x_85 () Real)
(declare-fun x_86 () Real)
(declare-fun x_87 () Bool)
(declare-fun x_88 () Bool)
(declare-fun x_89 () Bool)
(declare-fun x_90 () Bool)
(declare-fun x_91 () Real)
(declare-fun x_92 () Real)
(declare-fun x_93 () Real)
(declare-fun x_94 () Real)
(declare-fun x_95 () Real)
(declare-fun x_96 () Real)
(declare-fun x_97 () Bool)
(declare-fun x_98 () Bool)
(declare-fun x_99 () Bool)
(declare-fun x_100 () Bool)
(declare-fun x_101 () Bool)
(declare-fun x_102 () Bool)
(declare-fun x_103 () Bool)
(declare-fun x_104 () Real)
(declare-fun x_105 () Real)
(declare-fun x_106 () Real)
(declare-fun x_107 () Real)
(declare-fun x_108 () Bool)
(declare-fun x_109 () Bool)
(declare-fun x_110 () Bool)
(declare-fun x_111 () Bool)
(declare-fun x_112 () Real)
(declare-fun x_113 () Real)
(declare-fun x_114 () Real)
(declare-fun x_115 () Real)
(declare-fun x_116 () Real)
(declare-fun x_117 () Real)
(declare-fun x_118 () Bool)
(assert (let ((?v_177 (+ x_2 x_1)) (?v_220 (<= x_0 x_5)) (?v_201 (= x_23 x_15)) (?v_152 (= x_19 0)) (?v_162 (< x_0 x_42)) (?v_186 (= x_5 x_0)) (?v_202 (= x_19 2)) (?v_211 (= x_43 x_44)) (?v_212 (and (= x_45 x_46) (= x_47 x_48))) (?v_199 (= x_49 x_50)) (?v_200 (and (= x_51 x_52) (= x_53 x_54))) (?v_213 (= x_55 x_56)) (?v_214 (and (= x_57 x_58) (= x_59 x_60))) (?v_172 (= x_61 x_42)) (?v_198 (= x_62 x_63)) (?v_196 (= x_64 x_65)) (?v_197 (and (= x_66 x_67) (= x_68 x_69))) (?v_215 (= x_20 x_12)) (?v_221 (- x_4 x_2)) (?v_150 (= x_19 1)) (?v_193 (+ x_1 x_2)) (?v_189 (<= x_8 x_5))) (let ((?v_195 (= x_43 (or x_44 (and ?v_189 x_65)))) (?v_179 (<= x_13 ?v_177)) (?v_181 (<= x_14 ?v_177)) (?v_178 (<= x_13 x_1)) (?v_180 (<= x_14 x_1)) (?v_174 (not x_46)) (?v_204 (< x_13 x_0)) (?v_205 (= x_5 x_13)) (?v_176 (not x_48)) (?v_206 (< x_14 x_0)) (?v_207 (= x_5 x_14)) (?v_165 (not x_44)) (?v_222 (not ?v_220)) (?v_183 (not x_67)) (?v_184 (not x_69)) (?v_185 (not x_65))) (let ((?v_173 (not ?v_178))) (let ((?v_187 (and ?v_173 (<= x_13 x_5))) (?v_175 (not ?v_180))) (let ((?v_188 (and ?v_175 (<= x_14 x_5)))) (let ((?v_194 (and (= x_45 (or x_46 (and ?v_187 x_67))) (= x_47 (or x_48 (and ?v_188 x_69))))) (?v_182 (<= x_8 ?v_177)) (?v_208 (< x_8 x_0)) (?v_209 (= x_5 x_8)) (?v_190 (not ?v_179)) (?v_191 (not ?v_181)) (?v_9 (and (not (<= x_8 x_1)) ?v_189)) (?v_10 (and (not (<= x_9 x_1)) (<= x_9 x_5)))) (let ((?v_192 (not ?v_182)) (?v_111 (+ x_2 x_5)) (?v_154 (<= x_4 x_7)) (?v_135 (= x_31 x_23)) (?v_88 (= x_27 0)) (?v_96 (< x_4 x_61)) (?v_120 (= x_7 x_4)) (?v_136 (= x_27 2)) (?v_145 (= x_77 x_43)) (?v_146 (and (= x_78 x_45) (= x_79 x_47))) (?v_133 (= x_80 x_49)) (?v_134 (and (= x_81 x_51) (= x_82 x_53))) (?v_147 (= x_83 x_55)) (?v_148 (and (= x_84 x_57) (= x_85 x_59))) (?v_106 (= x_86 x_61)) (?v_132 (= x_87 x_62)) (?v_130 (= x_88 x_64)) (?v_131 (and (= x_89 x_66) (= x_90 x_68))) (?v_149 (= x_28 x_20)) (?v_155 (- x_6 x_2)) (?v_86 (= x_27 1)) (?v_127 (+ x_5 x_2)) (?v_123 (<= x_16 x_7))) (let ((?v_129 (= x_77 (or x_43 (and ?v_123 x_64)))) (?v_113 (<= x_21 ?v_111)) (?v_115 (<= x_22 ?v_111)) (?v_112 (<= x_21 x_5)) (?v_114 (<= x_22 x_5)) (?v_108 (not x_45)) (?v_138 (< x_21 x_4)) (?v_139 (= x_7 x_21)) (?v_110 (not x_47)) (?v_140 (< x_22 x_4)) (?v_141 (= x_7 x_22)) (?v_99 (not x_43)) (?v_156 (not ?v_154)) (?v_117 (not x_66)) (?v_118 (not x_68)) (?v_119 (not x_64))) (let ((?v_107 (not ?v_112))) (let ((?v_121 (and ?v_107 (<= x_21 x_7))) (?v_109 (not ?v_114))) (let ((?v_122 (and ?v_109 (<= x_22 x_7)))) (let ((?v_128 (and (= x_78 (or x_45 (and ?v_121 x_66))) (= x_79 (or x_47 (and ?v_122 x_68))))) (?v_116 (<= x_16 ?v_111)) (?v_142 (< x_16 x_4)) (?v_143 (= x_7 x_16)) (?v_124 (not ?v_113)) (?v_125 (not ?v_115)) (?v_223 (not (<= x_16 x_5)))) (let ((?v_15 (and ?v_223 ?v_123)) (?v_224 (not (<= x_17 x_5)))) (let ((?v_16 (and ?v_224 (<= x_17 x_7))) (?v_126 (not ?v_116)) (?v_46 (+ x_2 x_7)) (?v_90 (<= x_6 x_32)) (?v_71 (= x_41 x_31)) (?v_29 (= x_37 0)) (?v_30 (< x_6 x_86)) (?v_56 (= x_32 x_6)) (?v_72 (= x_37 2)) (?v_81 (= x_98 x_77)) (?v_82 (and (= x_99 x_78) (= x_100 x_79))) (?v_69 (= x_101 x_80)) (?v_70 (and (= x_102 x_81) (= x_103 x_82))) (?v_83 (= x_104 x_83)) (?v_84 (and (= x_105 x_84) (= x_106 x_85))) (?v_40 (= x_107 x_86)) (?v_68 (= x_108 x_87)) (?v_66 (= x_109 x_88)) (?v_67 (and (= x_110 x_89) (= x_111 x_90))) (?v_85 (= x_38 x_28)) (?v_91 (- x_33 x_2)) (?v_41 (= x_37 1)) (?v_63 (+ x_7 x_2)) (?v_59 (<= x_24 x_32))) (let ((?v_65 (= x_98 (or x_77 (and ?v_59 x_88)))) (?v_49 (<= x_29 ?v_46)) (?v_51 (<= x_30 ?v_46)) (?v_48 (<= x_29 x_7)) (?v_50 (<= x_30 x_7)) (?v_43 (not x_78)) (?v_74 (< x_29 x_6)) (?v_75 (= x_32 x_29)) (?v_45 (not x_79)) (?v_76 (< x_30 x_6)) (?v_77 (= x_32 x_30)) (?v_33 (not x_77)) (?v_92 (not ?v_90)) (?v_53 (not x_89)) (?v_54 (not x_90)) (?v_55 (not x_88))) (let ((?v_42 (not ?v_48))) (let ((?v_57 (and ?v_42 (<= x_29 x_32))) (?v_44 (not ?v_50))) (let ((?v_58 (and ?v_44 (<= x_30 x_32)))) (let ((?v_64 (and (= x_99 (or x_78 (and ?v_57 x_89))) (= x_100 (or x_79 (and ?v_58 x_90))))) (?v_52 (<= x_24 ?v_46)) (?v_78 (< x_24 x_6)) (?v_79 (= x_32 x_24)) (?v_60 (not ?v_49)) (?v_61 (not ?v_51)) (?v_157 (not (<= x_24 x_7)))) (let ((?v_21 (and ?v_157 ?v_59)) (?v_158 (not (<= x_25 x_7)))) (let ((?v_22 (and ?v_158 (<= x_25 x_32))) (?v_62 (not ?v_52)) (?v_171 (= x_55 0)) (?v_161 (= x_55 3)) (?v_167 (= x_57 0)) (?v_159 (= x_57 3)) (?v_169 (= x_59 0)) (?v_160 (= x_59 3)) (?v_105 (= x_83 0)) (?v_95 (= x_83 3)) (?v_101 (= x_84 0)) (?v_93 (= x_84 3)) (?v_103 (= x_85 0)) (?v_94 (= x_85 3)) (?v_39 (= x_104 0)) (?v_28 (= x_104 3)) (?v_35 (= x_105 0)) (?v_26 (= x_105 3)) (?v_37 (= x_106 0)) (?v_27 (= x_106 3)) (?v_47 (not x_38)) (?v_0 (< x_32 x_39)) (?v_1 (< x_32 x_40)) (?v_73 (not x_41)) (?v_89 (not ?v_86)) (?v_87 (not x_28)) (?v_2 (< x_7 x_29)) (?v_3 (< x_7 x_30)) (?v_137 (not x_31)) (?v_153 (not ?v_150)) (?v_151 (not x_20)) (?v_4 (< x_5 x_21)) (?v_5 (< x_5 x_22)) (?v_203 (not x_23)) (?v_216 (= x_11 1))) (let ((?v_219 (not ?v_216)) (?v_217 (not x_12)) (?v_6 (< x_1 x_13)) (?v_7 (< x_1 x_14)) (?v_11 (and (not (<= x_10 x_1)) (<= x_10 x_5))) (?v_17 (and (not (<= x_18 x_5)) (<= x_18 x_7))) (?v_23 (and (not (<= x_26 x_7)) (<= x_26 x_32))) (?v_31 (= x_105 (ite ?v_43 (ite (and ?v_57 (< x_84 3)) (+ x_84 1) x_84) x_84))) (?v_32 (= x_106 (ite ?v_45 (ite (and ?v_58 (< x_85 3)) (+ x_85 1) x_85) x_85))) (?v_34 (or x_78 ?v_26)) (?v_36 (or x_79 ?v_27)) (?v_38 (or x_77 ?v_28)) (?v_97 (= x_84 (ite ?v_108 (ite (and ?v_121 (< x_57 3)) (+ x_57 1) x_57) x_57))) (?v_98 (= x_85 (ite ?v_110 (ite (and ?v_122 (< x_59 3)) (+ x_59 1) x_59) x_59))) (?v_100 (or x_45 ?v_93)) (?v_102 (or x_47 ?v_94)) (?v_104 (or x_43 ?v_95)) (?v_163 (= x_57 (ite ?v_174 (ite (and ?v_187 (< x_58 3)) (+ x_58 1) x_58) x_58))) (?v_164 (= x_59 (ite ?v_176 (ite (and ?v_188 (< x_60 3)) (+ x_60 1) x_60) x_60))) (?v_166 (or x_46 ?v_159)) (?v_168 (or x_48 ?v_160)) (?v_170 (or x_44 ?v_161)) (?v_218 (= x_11 0)) (?v_8 (ite ?v_9 2 1)) (?v_12 (ite ?v_9 3 2)) (?v_13 (ite ?v_9 1 0)) (?v_14 (ite ?v_15 2 1)) (?v_18 (ite ?v_15 3 2)) (?v_19 (ite ?v_15 1 0)) (?v_20 (ite ?v_21 2 1)) (?v_24 (ite ?v_21 3 2)) (?v_25 (ite ?v_21 1 0)) (?v_80 (<= (ite x_80 (ite x_82 (ite x_81 3 2) x_112) (ite x_82 x_112 (ite x_81 1 0))) (* (* (ite x_77 (ite x_79 (ite x_78 0 1) x_113) (ite x_79 x_113 (ite x_78 2 3))) 1) (/ 1 2)))) (?v_144 (<= (ite x_49 (ite x_53 (ite x_51 3 2) x_91) (ite x_53 x_91 (ite x_51 1 0))) (* (* (ite x_43 (ite x_47 (ite x_45 0 1) x_92) (ite x_47 x_92 (ite x_45 2 3))) 1) (/ 1 2)))) (?v_210 (<= (ite x_50 (ite x_54 (ite x_52 3 2) x_70) (ite x_54 x_70 (ite x_52 1 0))) (* (* (ite x_44 (ite x_48 (ite x_46 0 1) x_71) (ite x_48 x_71 (ite x_46 2 3))) 1) (/ 1 2))))) (and (and (and (and (and (and (and (and (and (and (and (and (and (and (and (and (and (and (and (and (and (and (and (and (and (and (and (and (and (and (and (and (and (and (and (and (and (and (and (and (and (and (and (and (and (and (and (and (and (and (and (and (and (and (and (and (and (and (and (and (and (and (and (and (and (and (and (and (and (and (and (and (and (and (and (and (and (and (and (and (and (and (and (and (and (and (and (and (and (and (and (and (and (and (and (and (and (and (and (and (and (and (and (and (and (and (and (and (and (and (and (and (and (and (and (and (and (and (and (and (and (and (and (and (and (and (and (and (and (and (and (and (and (and (and (and (and (and (and (and (and (and (and (<= x_37 2) (>= x_37 0)) (<= x_27 2)) (>= x_27 0)) (<= x_19 2)) (>= x_19 0)) (<= x_11 2)) (>= x_11 0)) (>= x_0 0)) (>= x_1 0)) (> x_2 0)) (>= x_2 0)) (not (<= x_3 (* x_2 3)))) (>= x_3 0)) (>= x_4 0)) (>= x_5 0)) (>= x_6 0)) (>= x_7 0)) (>= x_8 0)) (>= x_9 0)) (>= x_10 0)) (>= x_13 0)) (>= x_14 0)) (>= x_16 0)) (>= x_17 0)) (>= x_18 0)) (>= x_21 0)) (>= x_22 0)) (>= x_24 0)) (>= x_25 0)) (>= x_26 0)) (>= x_29 0)) (>= x_30 0)) (>= x_32 0)) (>= x_33 0)) (>= x_34 0)) (>= x_35 0)) (>= x_36 0)) (>= x_39 0)) (>= x_40 0)) (>= x_42 0)) (or (or (or ?v_171 (= x_55 1)) (= x_55 2)) ?v_161)) (not (< x_55 0))) (<= x_55 3)) (or (or (or (= x_56 0) (= x_56 1)) (= x_56 2)) (= x_56 3))) (not (< x_56 0))) (<= x_56 3)) (or (or (or ?v_167 (= x_57 1)) (= x_57 2)) ?v_159)) (not (< x_57 0))) (<= x_57 3)) (or (or (or (= x_58 0) (= x_58 1)) (= x_58 2)) (= x_58 3))) (not (< x_58 0))) (<= x_58 3)) (or (or (or ?v_169 (= x_59 1)) (= x_59 2)) ?v_160)) (not (< x_59 0))) (<= x_59 3)) (or (or (or (= x_60 0) (= x_60 1)) (= x_60 2)) (= x_60 3))) (not (< x_60 0))) (<= x_60 3)) (>= x_61 0)) (or (or (or ?v_105 (= x_83 1)) (= x_83 2)) ?v_95)) (not (< x_83 0))) (<= x_83 3)) (or (or (or ?v_101 (= x_84 1)) (= x_84 2)) ?v_93)) (not (< x_84 0))) (<= x_84 3)) (or (or (or ?v_103 (= x_85 1)) (= x_85 2)) ?v_94)) (not (< x_85 0))) (<= x_85 3)) (>= x_86 0)) (or (or (or ?v_39 (= x_104 1)) (= x_104 2)) ?v_28)) (not (< x_104 0))) (<= x_104 3)) (or (or (or ?v_35 (= x_105 1)) (= x_105 2)) ?v_26)) (not (< x_105 0))) (<= x_105 3)) (or (or (or ?v_37 (= x_106 1)) (= x_106 2)) ?v_27)) (not (< x_106 0))) (<= x_106 3)) (>= x_107 0)) (<= (- x_6 x_7) x_3)) (<= (- x_4 x_5) x_3)) (<= (- x_0 x_1) x_3)) (< x_32 x_33)) (< x_32 x_34)) (< x_32 x_35)) (< x_32 x_36)) (or (or (not ?v_41) ?v_47) (and ?v_0 ?v_1))) (or (or (not ?v_72) ?v_73) (and (ite (not ?v_0) (< (- x_32 x_39) x_2) (< (- x_39 x_32) x_2)) (ite (not ?v_1) (< (- x_32 x_40) x_2) (< (- x_40 x_32) x_2))))) (< x_7 x_6)) (< x_7 x_24)) (< x_7 x_25)) (< x_7 x_26)) (or (or ?v_89 ?v_87) (and ?v_2 ?v_3))) (or (or (not ?v_136) ?v_137) (and (ite (not ?v_2) (< (- x_7 x_29) x_2) (< (- x_29 x_7) x_2)) (ite (not ?v_3) (< (- x_7 x_30) x_2) (< (- x_30 x_7) x_2))))) (< x_5 x_4)) (< x_5 x_16)) (< x_5 x_17)) (< x_5 x_18)) (or (or ?v_153 ?v_151) (and ?v_4 ?v_5))) (or (or (not ?v_202) ?v_203) (and (ite (not ?v_4) (< (- x_5 x_21) x_2) (< (- x_21 x_5) x_2)) (ite (not ?v_5) (< (- x_5 x_22) x_2) (< (- x_22 x_5) x_2))))) (< x_1 x_0)) (< x_1 x_8)) (< x_1 x_9)) (< x_1 x_10)) (or (or ?v_219 ?v_217) (and ?v_6 ?v_7))) (or (or (not (= x_11 2)) (not x_15)) (and (ite (not ?v_6) (< (- x_1 x_13) x_2) (< (- x_13 x_1) x_2)) (ite (not ?v_7) (< (- x_1 x_14) x_2) (< (- x_14 x_1) x_2))))) (= x_70 (ite x_52 2 1))) (= x_71 (ite x_46 1 2))) (= x_72 ?v_8)) (= x_73 ?v_8)) (= x_74 (+ (ite ?v_11 (ite ?v_10 ?v_12 x_72) (ite ?v_10 x_72 ?v_13)) x_56))) (= x_75 (+ (ite ?v_11 (ite ?v_10 ?v_12 x_73) (ite ?v_10 x_73 ?v_13)) x_56))) (= x_91 (ite x_51 2 1))) (= x_92 (ite x_45 1 2))) (= x_93 ?v_14)) (= x_94 ?v_14)) (= x_95 (+ (ite ?v_17 (ite ?v_16 ?v_18 x_93) (ite ?v_16 x_93 ?v_19)) x_55))) (= x_96 (+ (ite ?v_17 (ite ?v_16 ?v_18 x_94) (ite ?v_16 x_94 ?v_19)) x_55))) (= x_112 (ite x_81 2 1))) (= x_113 (ite x_78 1 2))) (= x_114 ?v_20)) (= x_115 ?v_20)) (= x_116 (+ (ite ?v_23 (ite ?v_22 ?v_24 x_114) (ite ?v_22 x_114 ?v_25)) x_83))) (= x_117 (+ (ite ?v_23 (ite ?v_22 ?v_24 x_115) (ite ?v_22 x_115 ?v_25)) x_83))) (or (or (and (and (and (and (and (and (or (and (and (and (and (and (and (and (and (and (and ?v_29 ?v_30) ?v_56) ?v_31) ?v_32) (= x_104 (ite ?v_33 (ite (not (< x_116 3)) 3 x_116) x_83))) (= x_99 ?v_34)) (= x_100 ?v_36)) (= x_98 ?v_38)) ?v_68) ?v_40) (and (and (and (and (and (and (and (and (and (and ?v_29 (not ?v_30)) x_108) (= x_32 x_86)) ?v_31) ?v_32) (= x_104 (ite ?v_33 (ite (not (< x_117 3)) 3 x_117) x_83))) (= x_99 (or ?v_34 ?v_35))) (= x_100 (or ?v_36 ?v_37))) (= x_98 (or ?v_38 ?v_39))) ?v_40)) ?v_66) ?v_67) ?v_85) ?v_69) ?v_70) ?v_71) (and (and (and (and (and (and (and (or (and (and (and (and (and (and (and (and (and (and (and ?v_41 (or (or (and (and (and ?v_42 ?v_43) ?v_53) ?v_49) (and (and (and ?v_44 ?v_45) ?v_54) ?v_51)) (and (and ?v_33 ?v_55) ?v_52))) ?v_47) (or (or (or (or ?v_48 ?v_60) x_89) x_78) (not (< x_32 x_29)))) (or (or (or (or ?v_50 ?v_61) x_90) x_79) (not (< x_32 x_30)))) (or (or (or ?v_62 x_88) x_77) (not (< x_32 x_24)))) (or (or (or (and (and (and (and ?v_53 ?v_43) ?v_49) ?v_74) ?v_75) (and (and (and (and ?v_54 ?v_45) ?v_51) ?v_76) ?v_77)) (and (and (and (and ?v_55 ?v_33) ?v_52) ?v_78) ?v_79)) (and (< x_6 ?v_63) ?v_56))) (= x_110 (or x_89 ?v_57))) (= x_111 (or x_90 ?v_58))) (= x_109 (or x_88 ?v_59))) ?v_64) ?v_65) (and (and (and (and (and (and (and (and (and ?v_41 (or (or (or ?v_48 x_89) x_78) ?v_60)) (or (or (or ?v_50 x_90) x_79) ?v_61)) (or (or x_88 x_77) ?v_62)) x_38) (= x_32 ?v_63)) ?v_64) ?v_65) ?v_66) ?v_67)) ?v_83) ?v_84) ?v_40) ?v_68) ?v_69) ?v_70) ?v_71)) (and (and (and (and (and (and (and (or (and (and (and (and (and (and (and (and (and (and (and ?v_72 ?v_80) ?v_73) (or (or (or ?v_48 x_81) x_78) (<= x_32 x_29))) (or (or (or ?v_50 x_82) x_79) (<= x_32 x_30))) (or (or x_80 x_77) (<= x_32 x_24))) (or (or (or (and (and (and (and (not x_81) ?v_43) ?v_2) ?v_74) ?v_75) (and (and (and (and (not x_82) ?v_45) ?v_3) ?v_76) ?v_77)) (and (and (and (not x_80) ?v_33) ?v_78) ?v_79)) ?v_56)) (= x_102 (or x_81 (= x_29 x_32)))) (= x_103 (or x_82 (= x_30 x_32)))) (= x_101 (or x_80 (= x_24 x_32)))) ?v_81) ?v_82) (and (and (and (and (and (and (and ?v_72 (not ?v_80)) x_41) ?v_81) ?v_82) (= x_32 x_7)) ?v_69) ?v_70)) ?v_83) ?v_84) ?v_40) ?v_68) ?v_66) ?v_67) ?v_85))) (or (or (and ?v_88 (= x_37 (ite (not x_87) x_27 1))) (and ?v_86 (= x_37 (ite ?v_87 x_27 2)))) (and (and (not ?v_88) ?v_89) (= x_37 x_27)))) (or (and (and ?v_90 (not (<= x_33 x_39))) (not (<= x_39 ?v_91))) (and ?v_92 (= x_39 x_29)))) (or (and (and ?v_90 (not (<= x_33 x_40))) (not (<= x_40 ?v_91))) (and ?v_92 (= x_40 x_30)))) (or (and (and ?v_90 (= x_33 (+ x_6 x_3))) x_118) (and (and ?v_92 (not x_118)) (= x_33 x_6)))) (or (and (and (and (and ?v_59 (not (<= x_34 x_32))) (not (<= x_35 x_32))) (< x_34 x_35)) (< x_35 x_36)) (and (and (and (not ?v_59) (= x_34 x_24)) (= x_35 x_25)) (= x_36 x_26)))) (or (or (and (and (and (and (and (and (or (and (and (and (and (and (and (and (and (and (and ?v_88 ?v_96) ?v_120) ?v_97) ?v_98) (= x_83 (ite ?v_99 (ite (not (< x_95 3)) 3 x_95) x_55))) (= x_78 ?v_100)) (= x_79 ?v_102)) (= x_77 ?v_104)) ?v_132) ?v_106) (and (and (and (and (and (and (and (and (and (and ?v_88 (not ?v_96)) x_87) (= x_7 x_61)) ?v_97) ?v_98) (= x_83 (ite ?v_99 (ite (not (< x_96 3)) 3 x_96) x_55))) (= x_78 (or ?v_100 ?v_101))) (= x_79 (or ?v_102 ?v_103))) (= x_77 (or ?v_104 ?v_105))) ?v_106)) ?v_130) ?v_131) ?v_149) ?v_133) ?v_134) ?v_135) (and (and (and (and (and (and (and (or (and (and (and (and (and (and (and (and (and (and (and ?v_86 (or (or (and (and (and ?v_107 ?v_108) ?v_117) ?v_113) (and (and (and ?v_109 ?v_110) ?v_118) ?v_115)) (and (and ?v_99 ?v_119) ?v_116))) ?v_87) (or (or (or (or ?v_112 ?v_124) x_66) x_45) (not (< x_7 x_21)))) (or (or (or (or ?v_114 ?v_125) x_68) x_47) (not (< x_7 x_22)))) (or (or (or ?v_126 x_64) x_43) (not (< x_7 x_16)))) (or (or (or (and (and (and (and ?v_117 ?v_108) ?v_113) ?v_138) ?v_139) (and (and (and (and ?v_118 ?v_110) ?v_115) ?v_140) ?v_141)) (and (and (and (and ?v_119 ?v_99) ?v_116) ?v_142) ?v_143)) (and (< x_4 ?v_127) ?v_120))) (= x_89 (or x_66 ?v_121))) (= x_90 (or x_68 ?v_122))) (= x_88 (or x_64 ?v_123))) ?v_128) ?v_129) (and (and (and (and (and (and (and (and (and ?v_86 (or (or (or ?v_112 x_66) x_45) ?v_124)) (or (or (or ?v_114 x_68) x_47) ?v_125)) (or (or x_64 x_43) ?v_126)) x_28) (= x_7 ?v_127)) ?v_128) ?v_129) ?v_130) ?v_131)) ?v_147) ?v_148) ?v_106) ?v_132) ?v_133) ?v_134) ?v_135)) (and (and (and (and (and (and (and (or (and (and (and (and (and (and (and (and (and (and (and ?v_136 ?v_144) ?v_137) (or (or (or ?v_112 x_51) x_45) (<= x_7 x_21))) (or (or (or ?v_114 x_53) x_47) (<= x_7 x_22))) (or (or x_49 x_43) (<= x_7 x_16))) (or (or (or (and (and (and (and (not x_51) ?v_108) ?v_4) ?v_138) ?v_139) (and (and (and (and (not x_53) ?v_110) ?v_5) ?v_140) ?v_141)) (and (and (and (not x_49) ?v_99) ?v_142) ?v_143)) ?v_120)) (= x_81 (or x_51 (= x_21 x_7)))) (= x_82 (or x_53 (= x_22 x_7)))) (= x_80 (or x_49 (= x_16 x_7)))) ?v_145) ?v_146) (and (and (and (and (and (and (and ?v_136 (not ?v_144)) x_31) ?v_145) ?v_146) (= x_7 x_5)) ?v_133) ?v_134)) ?v_147) ?v_148) ?v_106) ?v_132) ?v_130) ?v_131) ?v_149))) (or (or (and ?v_152 (= x_27 (ite (not x_62) x_19 1))) (and ?v_150 (= x_27 (ite ?v_151 x_19 2)))) (and (and (not ?v_152) ?v_153) (= x_27 x_19)))) (or (and (and ?v_154 (not (<= x_6 x_29))) (not (<= x_29 ?v_155))) (and ?v_156 (= x_29 x_21)))) (or (and (and ?v_154 (not (<= x_6 x_30))) (not (<= x_30 ?v_155))) (and ?v_156 (= x_30 x_22)))) (or (and (and ?v_154 (= x_6 (+ x_4 x_3))) x_97) (and (and ?v_156 (not x_97)) (= x_6 x_4)))) (or (and (and (and (and ?v_123 ?v_157) ?v_158) (< x_24 x_25)) (< x_25 x_26)) (and (and (and (not ?v_123) (= x_24 x_16)) (= x_25 x_17)) (= x_26 x_18)))) (or (or (and (and (and (and (and (and (or (and (and (and (and (and (and (and (and (and (and ?v_152 ?v_162) ?v_186) ?v_163) ?v_164) (= x_55 (ite ?v_165 (ite (not (< x_74 3)) 3 x_74) x_56))) (= x_45 ?v_166)) (= x_47 ?v_168)) (= x_43 ?v_170)) ?v_198) ?v_172) (and (and (and (and (and (and (and (and (and (and ?v_152 (not ?v_162)) x_62) (= x_5 x_42)) ?v_163) ?v_164) (= x_55 (ite ?v_165 (ite (not (< x_75 3)) 3 x_75) x_56))) (= x_45 (or ?v_166 ?v_167))) (= x_47 (or ?v_168 ?v_169))) (= x_43 (or ?v_170 ?v_171))) ?v_172)) ?v_196) ?v_197) ?v_215) ?v_199) ?v_200) ?v_201) (and (and (and (and (and (and (and (or (and (and (and (and (and (and (and (and (and (and (and ?v_150 (or (or (and (and (and ?v_173 ?v_174) ?v_183) ?v_179) (and (and (and ?v_175 ?v_176) ?v_184) ?v_181)) (and (and ?v_165 ?v_185) ?v_182))) ?v_151) (or (or (or (or ?v_178 ?v_190) x_67) x_46) (not (< x_5 x_13)))) (or (or (or (or ?v_180 ?v_191) x_69) x_48) (not (< x_5 x_14)))) (or (or (or ?v_192 x_65) x_44) (not (< x_5 x_8)))) (or (or (or (and (and (and (and ?v_183 ?v_174) ?v_179) ?v_204) ?v_205) (and (and (and (and ?v_184 ?v_176) ?v_181) ?v_206) ?v_207)) (and (and (and (and ?v_185 ?v_165) ?v_182) ?v_208) ?v_209)) (and (< x_0 ?v_193) ?v_186))) (= x_66 (or x_67 ?v_187))) (= x_68 (or x_69 ?v_188))) (= x_64 (or x_65 ?v_189))) ?v_194) ?v_195) (and (and (and (and (and (and (and (and (and ?v_150 (or (or (or ?v_178 x_67) x_46) ?v_190)) (or (or (or ?v_180 x_69) x_48) ?v_191)) (or (or x_65 x_44) ?v_192)) x_20) (= x_5 ?v_193)) ?v_194) ?v_195) ?v_196) ?v_197)) ?v_213) ?v_214) ?v_172) ?v_198) ?v_199) ?v_200) ?v_201)) (and (and (and (and (and (and (and (or (and (and (and (and (and (and (and (and (and (and (and ?v_202 ?v_210) ?v_203) (or (or (or ?v_178 x_52) x_46) (<= x_5 x_13))) (or (or (or ?v_180 x_54) x_48) (<= x_5 x_14))) (or (or x_50 x_44) (<= x_5 x_8))) (or (or (or (and (and (and (and (not x_52) ?v_174) ?v_6) ?v_204) ?v_205) (and (and (and (and (not x_54) ?v_176) ?v_7) ?v_206) ?v_207)) (and (and (and (not x_50) ?v_165) ?v_208) ?v_209)) ?v_186)) (= x_51 (or x_52 (= x_13 x_5)))) (= x_53 (or x_54 (= x_14 x_5)))) (= x_49 (or x_50 (= x_8 x_5)))) ?v_211) ?v_212) (and (and (and (and (and (and (and ?v_202 (not ?v_210)) x_23) ?v_211) ?v_212) (= x_5 x_1)) ?v_199) ?v_200)) ?v_213) ?v_214) ?v_172) ?v_198) ?v_196) ?v_197) ?v_215))) (or (or (and ?v_218 (= x_19 (ite (not x_63) x_11 1))) (and ?v_216 (= x_19 (ite ?v_217 x_11 2)))) (and (and (not ?v_218) ?v_219) (= x_19 x_11)))) (or (and (and ?v_220 (not (<= x_4 x_21))) (not (<= x_21 ?v_221))) (and ?v_222 (= x_21 x_13)))) (or (and (and ?v_220 (not (<= x_4 x_22))) (not (<= x_22 ?v_221))) (and ?v_222 (= x_22 x_14)))) (or (and (and ?v_220 (= x_4 (+ x_0 x_3))) x_76) (and (and ?v_222 (not x_76)) (= x_4 x_0)))) (or (and (and (and (and ?v_189 ?v_223) ?v_224) (< x_16 x_17)) (< x_17 x_18)) (and (and (and (not ?v_189) (= x_16 x_8)) (= x_17 x_9)) (= x_18 x_10)))) (not (<= (- x_33 x_32) x_3))))))))))))))))))))))))))
(check-sat)
(exit)
